RT is False
Default write of storage_offers_DA.csv just to have a file (but constraint should be inactive)
Reading model...
...model read.
creating competitive generators file...
...competitive generators recorded.
Loading data...
.. day-ahead data read.
Compiling instance...
...instance created.
Creating Offer Mitigation (model will solve as dispatch if TRUE)...
NOTE: storage offers will not be mitigated
...storage offer mitigation file created
Converting model to MPEC...
...converted
NOTE: initial MIP solve with only storage competitive to get feasible solution
Solving...

Welcome to IBM(R) ILOG(R) CPLEX(R) Interactive Optimizer 12.9.0.0
  with Simplex, Mixed Integer & Barrier Optimizers
5725-A06 5725-A29 5724-Y48 5724-Y49 5724-Y54 5724-Y55 5655-Y21
Copyright IBM Corp. 1988, 2019.  All Rights Reserved.

Type 'help' for a list of available commands.
Type 'help' followed by a command name for more
information on commands.

CPLEX> Logfile 'cplex.log' closed.
Logfile 'C:\Users\llavin\Desktop\test826\logs\tmpyaws40jy.cplex.log' open.
CPLEX> New value for parallel optimization mode: -1
CPLEX> New value for mixed integer optimality gap tolerance: 0.01
CPLEX> New value for integrality tolerance: 1e-12
CPLEX> New value for deterministic time limit in ticks: 45000
CPLEX> Problem 'C:\Users\llavin\Desktop\test826\logs\tmpc14fmwcf.pyomo.lp' read.
Read time = 0.22 sec. (13.64 ticks)
CPLEX> Problem name         : C:\Users\llavin\Desktop\test826\logs\tmpc14fmwcf.pyomo.lp
Objective sense      : Maximize
Variables            :   53815  [Nneg: 1,  Box: 22002,  Free: 4464,
                                 Binary: 27348]
Objective nonzeros   :    8952
Linear constraints   :  123235  [Less: 41356,  Greater: 59114,  Equal: 22765]
  Nonzeros           :  292577
  RHS nonzeros       :   67487

Variables            : Min LB: -5000.000        Max UB: 1000000.       
Objective nonzeros   : Min   : 0.1000000        Max   : 806.0000       
Linear constraints   :
  Nonzeros           : Min   : 0.1000000        Max   : 1000000.       
  RHS nonzeros       : Min   : 0.001000000      Max   : 1000000.       
CPLEX> CPXPARAM_Parallel                                -1
CPXPARAM_DetTimeLimit                            45000
CPXPARAM_MIP_Tolerances_MIPGap                   0.01
CPXPARAM_MIP_Tolerances_Integrality              9.9999999999999998e-13
Tried aggregator 3 times.
MIP Presolve eliminated 88819 rows and 19081 columns.
MIP Presolve added 3373 rows and 0 columns.
MIP Presolve modified 24868 coefficients.
Aggregator did 12990 substitutions.
Reduced MIP has 24799 rows, 21170 columns, and 71004 nonzeros.
Reduced MIP has 8353 binaries, 0 generals, 0 SOSs, and 0 indicators.
Presolve time = 0.33 sec. (175.29 ticks)
Probing fixed 368 vars, tightened 4281 bounds.
Probing time = 0.08 sec. (18.82 ticks)
Tried aggregator 2 times.
MIP Presolve eliminated 833 rows and 739 columns.
MIP Presolve modified 3012 coefficients.
Aggregator did 37 substitutions.
Reduced MIP has 23929 rows, 20394 columns, and 68483 nonzeros.
Reduced MIP has 7984 binaries, 0 generals, 0 SOSs, and 0 indicators.
Presolve time = 0.11 sec. (92.78 ticks)
Probing fixed 0 vars, tightened 432 bounds.
Probing time = 0.16 sec. (22.93 ticks)
Clique table members: 44428.
MIP emphasis: balance optimality and feasibility.
MIP search method: dynamic search.
Parallel mode: opportunistic, using up to 32 threads.
Root relaxation solution time = 0.45 sec. (624.72 ticks)

        Nodes                                         Cuts/
   Node  Left     Objective  IInf  Best Integer    Best Bound    ItCnt     Gap

      0     0     5692.3023   152                   5692.3023     5481         
      0     0     5663.0041    19                    Cuts: 40     5506         
      0     0     5653.3004    19                    Cuts: 14     5514         
      0     0     5581.3194    20                    Cuts: 13     5526         
      0     0     5564.0763    20                     Cuts: 3     5532         
      0     0     5564.0763    21                     Cuts: 2     5534         
      0     0     5564.0763    21                 Flowcuts: 1     5535         
      0    31    infeasible                           Cuts: 5     5986         
Elapsed time = 5.52 sec. (3081.23 ticks, tree = 0.03 MB, solutions = 0)
*     6+   55                         5091.2466     5415.1128             6.36%
*   109    63      integral     0     5210.0632     5415.1128     7174    3.94%
*   347    64      integral     0     5273.9340     5415.1128     6457    2.68%
    496    75     5227.4237     2     5273.9340     5415.1128     9068    2.68%

Cover cuts applied:  9
Implied bound cuts applied:  4
Flow cuts applied:  39
Mixed integer rounding cuts applied:  1
Gomory fractional cuts applied:  7

Root node processing (before b&c):
  Real time             =    4.31 sec. (3074.96 ticks)
Parallel b&c, 32 threads:
  Real time             =    3.47 sec. (399.07 ticks)
  Sync time (average)   =    1.38 sec.
  Wait time (average)   =    0.00 sec.
                          ------------
Total (root+branch&cut) =    7.78 sec. (3474.03 ticks)

Solution pool: 6 solutions saved.

MIP - Integer optimal, tolerance (0.01/1e-06):  Objective =  5.2739339826e+03
Current MIP best bound =  5.3083521678e+03 (gap = 34.4182, 0.65%)
Solution time =    7.80 sec.  Iterations = 10554  Nodes = 605 (23)
Deterministic time = 3474.18 ticks  (445.58 ticks/sec)

CPLEX> Incumbent solution written to file 'C:\Users\llavin\Desktop\test826\logs\tmpakeac99r.cplex.sol'.
CPLEX> NOTE: no warmstart specified for MIP iteration, default behavior is true
NOTE: resolving with all competitive generators using storage-only solution to warmstart
Solving...

Welcome to IBM(R) ILOG(R) CPLEX(R) Interactive Optimizer 12.9.0.0
  with Simplex, Mixed Integer & Barrier Optimizers
5725-A06 5725-A29 5724-Y48 5724-Y49 5724-Y54 5724-Y55 5655-Y21
Copyright IBM Corp. 1988, 2019.  All Rights Reserved.

Type 'help' for a list of available commands.
Type 'help' followed by a command name for more
information on commands.

CPLEX> Logfile 'cplex.log' closed.
Logfile 'C:\Users\llavin\Desktop\test826\logs\tmpwspjcp28.cplex.log' open.
CPLEX> New value for parallel optimization mode: -1
CPLEX> New value for mixed integer optimality gap tolerance: 0.01
CPLEX> New value for integrality tolerance: 1e-12
CPLEX> New value for deterministic time limit in ticks: 45000
CPLEX> Problem 'C:\Users\llavin\Desktop\test826\logs\tmp2i0u201n.pyomo.lp' read.
Read time = 0.22 sec. (13.66 ticks)
CPLEX> MIP start file 'C:\Users\llavin\Desktop\test826\logs\tmpqk64fllr.cplex.mst' read.
CPLEX> Problem name         : C:\Users\llavin\Desktop\test826\logs\tmp2i0u201n.pyomo.lp
Objective sense      : Maximize
Variables            :   54535  [Nneg: 1,  Box: 22722,  Free: 4464,
                                 Binary: 27348]
Objective nonzeros   :    9650
Linear constraints   :  123235  [Less: 41356,  Greater: 59114,  Equal: 22765]
  Nonzeros           :  292577
  RHS nonzeros       :   67487

Variables            : Min LB: -5000.000        Max UB: 1000000.       
Objective nonzeros   : Min   : 0.1000000        Max   : 757.9000       
Linear constraints   :
  Nonzeros           : Min   : 0.1000000        Max   : 1000000.       
  RHS nonzeros       : Min   : 0.001000000      Max   : 1000000.       
CPLEX> CPXPARAM_Parallel                                -1
CPXPARAM_DetTimeLimit                            45000
CPXPARAM_MIP_Tolerances_MIPGap                   0.01
CPXPARAM_MIP_Tolerances_Integrality              9.9999999999999998e-13
Warning:  No solution found from 1 MIP starts.
Retaining values of one MIP start for possible repair.
Tried aggregator 3 times.
MIP Presolve eliminated 88819 rows and 19801 columns.
MIP Presolve added 3373 rows and 0 columns.
MIP Presolve modified 24868 coefficients.
Aggregator did 12990 substitutions.
Reduced MIP has 24799 rows, 21170 columns, and 71004 nonzeros.
Reduced MIP has 8353 binaries, 0 generals, 0 SOSs, and 0 indicators.
Presolve time = 0.27 sec. (175.66 ticks)
Probing fixed 368 vars, tightened 4281 bounds.
Probing time = 0.08 sec. (18.82 ticks)
Tried aggregator 2 times.
MIP Presolve eliminated 833 rows and 739 columns.
MIP Presolve modified 3012 coefficients.
Aggregator did 37 substitutions.
Reduced MIP has 23929 rows, 20394 columns, and 68483 nonzeros.
Reduced MIP has 7984 binaries, 0 generals, 0 SOSs, and 0 indicators.
Presolve time = 0.11 sec. (92.79 ticks)
Probing fixed 0 vars, tightened 432 bounds.
Probing time = 0.16 sec. (22.93 ticks)
Clique table members: 44428.
MIP emphasis: balance optimality and feasibility.
MIP search method: dynamic search.
Parallel mode: opportunistic, using up to 32 threads.
Root relaxation solution time = 0.45 sec. (664.50 ticks)

        Nodes                                         Cuts/
   Node  Left     Objective  IInf  Best Integer    Best Bound    ItCnt     Gap

      0     0   111173.4030   269                 111173.4030     5843         
      0     0   109102.4199   205                   Cuts: 142     6061         
      0     0   108305.0293   194                   Cuts: 119     6217         
      0     0   108089.3221   188                    Cuts: 76     6290         
      0     0   108072.0383   210                Flowcuts: 25     6333         
      0     0   107975.5031   208                    Cuts: 14     6354         
      0     0   107946.3662   210                    Cuts: 21     6365         
Repair heuristic found nothing.
      0     2   107946.3662   210                     Cuts: 8     6365         
Elapsed time = 6.61 sec. (3311.41 ticks, tree = 0.02 MB, solutions = 0)
    333   127    99022.9302    94                 105899.5767     8714         
    856   262   102987.7329    96                 105734.0918    11661         
   1507   637    98468.8990    83                 105734.0918    31439         
   2125  1236    infeasible                       105734.0918    52082         
   2694  1212    99927.7803    95                 105734.0918    51118         
   3252  1772    37818.4762    70                 105734.0918    70443         
   3852  2176   -19694.5748    51                 105734.0918    78551         
   4401  2396    49660.5092    76                 105709.8387    82978         
   4918  2835    53303.2096    59                 105709.8387    94398         
   7056  4715    68692.0466   133                 104588.7914   154666         
Elapsed time = 24.02 sec. (6414.53 ticks, tree = 117.73 MB, solutions = 0)
   9057  6029    62005.5352    89                 104347.4757   202995         
  11160  7166    35580.0685    97                 104062.9856   247859         
  13122  8997    54263.1384    96                 103281.2659   337394         
  15133  9846    40479.3433   109                 102966.8855   385002         
  17243 11345    38497.5758   122                 102596.4063   460882         
  19156 12746    infeasible                       102089.6084   542254         
  21090 14236    48615.9140    77                 101886.0699   641776         
  23197 14924    63042.8594    67                 101672.5109   685140         
  25153 16413    64615.4543    94                 100856.6527   787405         
  27158 17137    30849.9547    93                 100561.4153   843170         
Elapsed time = 73.05 sec. (15956.24 ticks, tree = 303.97 MB, solutions = 0)
  29294 18384    34669.3017    84                 100275.5644   917978         
  31241 19749    58872.3952    53                  98950.4006   998286         
  33073 20386     4928.2271    80                  98514.2093  1062892         
  34899 21097   -33196.7723   110                  96596.6530  1139716         
  36803 22522    infeasible                        88888.8983  1295313         
  38578 23214    62203.7585   191                  69505.6556  1386497         
  40314 24100  -140866.5302    82                  68243.6143  1475368         
  42105 25693   -53286.8980   108                  67899.9053  1637707         
  43855 25430    44343.4142    91                  67734.2085  1605283         
  45479 26276   -12649.8351    31                  67734.2085  1706052         
Elapsed time = 143.27 sec. (25497.46 ticks, tree = 479.68 MB, solutions = 0)
  47252 27849  -141470.6813    91                  67125.5771  1928677         
  49234 27374    59570.6147   146                  66509.2941  1873822         
  51074 28810    49013.0361    50                  66044.2168  2031125         
  52665 29035    infeasible                        65909.9939  2059762         
  54416 29749   -74662.6073    77                  65546.7395  2127308         
  56318 30392    50961.9158    73                  65331.5168  2200486         
  58135 31781    31216.4811   188                  65013.3205  2404666         
* 59138+12104                        38437.2669    64850.1855            68.72%
  60713 31727    31172.6209   126    38437.2669    64850.1855  2401573   68.72%
  61909 32677    infeasible          38437.2669    64850.1855  2514068   68.72%
Elapsed time = 229.11 sec. (34581.23 ticks, tree = 557.00 MB, solutions = 1)
  62230 12441        cutoff          38437.2669    58776.7748  2804274   52.92%
  62618    61    44237.3337    62    38437.2669    57295.3665  2806256   49.06%
  63525   104    48744.9249    61    38437.2669    57295.3665  2807190   49.06%
  64457  1162    52908.4422   114    38437.2669    57112.2241  2825644   48.59%
  65902  1574    47443.7641    78    38437.2669    55609.3063  2834570   44.68%
  67787  1637    49139.5364    41    38437.2669    55593.6678  2835999   44.63%

GUB cover cuts applied:  2
Clique cuts applied:  5
Cover cuts applied:  101
Implied bound cuts applied:  82
Flow cuts applied:  134
Mixed integer rounding cuts applied:  18
Zero-half cuts applied:  1
Gomory fractional cuts applied:  12

Root node processing (before b&c):
  Real time             =    4.64 sec. (3253.93 ticks)
Parallel b&c, 32 threads:
  Real time             =  261.48 sec. (41762.45 ticks)
  Sync time (average)   =    6.41 sec.
  Wait time (average)   =    0.24 sec.
                          ------------
Total (root+branch&cut) =  266.13 sec. (45016.38 ticks)

Solution pool: 1 solution saved.

MIP - Deterministic time limit exceeded, integer feasible:  Objective =  3.8437266893e+04
Current MIP best bound =  5.3924027734e+04 (gap = 15486.8, 40.29%)
Solution time =  266.16 sec.  Iterations = 2897871  Nodes = 68571 (3626)
Deterministic time = 45016.53 ticks  (169.14 ticks/sec)

CPLEX> Incumbent solution written to file 'C:\Users\llavin\Desktop\test826\logs\tmpdd_s8wtq.cplex.sol'.
CPLEX> Exporting results... 
